z1,z2,z3,nondominated
1,2,3,0
1,8,4,0
5,4,10,0
9,6,3,0
6,8,7,0
3,6,7,0
9,2,3,0
5,4,3,0
1,5,8,0
10,8,6,0
7,4,1,0
2,8,6,0
7,10,4,0
3,2,10,0
5,7,7,0
8,5,9,0
6,6,4,0
2,4,5,0
1,8,1,0
10,10,6,0
1,1,9,0
9,4,2,0
10,9,5,0
10,1,5,0
8,3,6,0
10,1,1,0
2,2,8,0
6,5,3,0
4,1,10,0
8,10,10,0
3,2,9,0
7,2,5,0
2,1,8,0
10,2,9,0
2,3,6,0
9,2,7,0
1,1,1,0
1,1,1,0
1,1,1,0
1,1,1,0
1,1,1,0
1,1,1,0
